Route #1: 11 51 55 53 49 17 33 37 2 18
Route #2: 69 30 40 63 57 39 21 4 46 9 41 60 42 36
Route #3: 62 3 7 10 34 54 19 50
Route #4: 1 29 28 66 48 56 5 61
Route #5: 27 64 12 6 38 47
Route #6: 8 68 22 65
Route #7: 58 15 43 26 35
Route #8: 25 13 20 59 23 44 67
Route #9: 32 24 52 16 31 45 14
cost 2268.907279510757
